results/sol/BA_02_makespan_heurTrue.sol
# Solution for model JobShopModel
# Objective value = 48
y[0,0,0] 1
y[0,1,0] 1
y[1,0,1] 1
y[1,1,0] 1
x[0,0,0,0] 0
x[0,0,0,1] 1
x[0,0,1,0] 0
x[0,0,1,1] 1
x[0,1,0,0] 0
x[0,1,0,1] 0
x[0,1,1,0] 0
x[0,1,1,1] 1
x[1,0,0,0] 0
x[1,0,0,1] 0
x[1,0,1,0] 0
x[1,0,1,1] 0
x[1,1,0,0] 0
x[1,1,0,1] 0
x[1,1,1,0] 0
x[1,1,1,1] 0
s[0,0,0] 33
s[0,1,0] 17
s[1,0,1] 8
s[1,1,0] 3
Z_FO 48
