results/log/BA_02_makespan_heurTrue.log

Gurobi 10.0.1 (win64) logging started Thu Oct  5 12:31:32 2023

Set parameter LogFile to value "./results//log/BA_02_makespan_heurTrue.log"
Gurobi Optimizer version 10.0.1 build v10.0.1rc0 (win64)

CPU model: AMD Ryzen 7 3700X 8-Core Processor, instruction set [SSE2|AVX|AVX2]
Thread count: 8 physical cores, 16 logical processors, using up to 16 threads

Optimize a model with 27 rows, 25 columns and 74 nonzeros
Model fingerprint: 0x577e02e2
Variable types: 0 continuous, 25 integer (20 binary)
Coefficient statistics:
  Matrix range     [1e+00, 1e+07]
  Objective range  [1e+00, 1e+00]
  Bounds range     [1e+00, 1e+00]
  RHS range        [1e+00, 3e+07]

User MIP start did not produce a new incumbent solution
User MIP start violates constraint initial_start_time_job0_stage0_machine0_constraint by 1.000000000

Found heuristic solution: objective 67.0000000
Presolve removed 21 rows and 20 columns
Presolve time: 0.00s
Presolved: 6 rows, 5 columns, 16 nonzeros
Variable types: 0 continuous, 5 integer (2 binary)

Root relaxation: objective 3.300000e+01, 2 iterations, 0.00 seconds (0.00 work units)

    Nodes    |    Current Node    |     Objective Bounds      |     Work
 Expl Unexpl |  Obj  Depth IntInf | Incumbent    BestBd   Gap | It/Node Time

     0     0   33.00000    0    2   67.00000   33.00000  50.7%     -    0s
     0     0   48.00000    0    1   67.00000   48.00000  28.4%     -    0s
H    0     0                      48.0000000   48.00000  0.00%     -    0s
     0     0   48.00000    0    1   48.00000   48.00000  0.00%     -    0s

Explored 1 nodes (3 simplex iterations) in 0.00 seconds (0.00 work units)
Thread count was 16 (of 16 available processors)

Solution count 2: 48 67 

Optimal solution found (tolerance 1.00e-04)
Best objective 4.800000000000e+01, best bound 4.800000000000e+01, gap 0.0000%
Warning: constraint name "precedence between 0,0 to 0,1 if x_[0,0,0,1,0]=0, i.e. 0,1 before 0,0" has a space
Warning: constraint name "precedence between 0,0 to 0,1 if x_[0,0,0,1,0]=0, i.e. 0,1 before 0,0" has a space
Warning: default constraint names used to write mps file
